WARNING: for repeatability, setting FPU to use double precision
============================[ Problem Statistics ]=============================
|                                                                             |
|  Number of variables:            50                                         |
|  Number of clauses:             217                                         |
|  Parse time:                   0.00 s                                       |
subsumption left:        216 (         0 subsumed,          0 deleted literals)elimination left:         49|  Garbage collection:          21640 bytes =>            0 bytes             |
|  Eliminated clauses:           0.00 Mb                                      |
|  Simplification time:          0.00 s                                       |
|                                                                             |
============================[ Search Statistics ]==============================
| Conflicts |          ORIGINAL         |          LEARNT          | Progress |
|           |    Vars  Clauses Literals |    Limit  Clauses Lit/Cl |          |
===============================================================================
===============================================================================
restarts              : 1
conflicts             : 0              (0 /sec)
decisions             : 1              (0.00 % random) (207 /sec)
propagations          : 26359          (5459611 /sec)
conflict literals     : 0              (-nan % deleted)
Memory used           : 11.00 MB
CPU time              : 0.004828 s

SATISFIABLE
WARNING: for repeatability, setting FPU to use double precision
============================[ Problem Statistics ]=============================
|                                                                             |
|  Number of variables:            50                                         |
|  Number of clauses:             217                                         |
|  Parse time:                   0.00 s                                       |
subsumption left:        216 (         0 subsumed,          0 deleted literals)elimination left:         49|  Garbage collection:          21588 bytes =>            0 bytes             |
|  Eliminated clauses:           0.00 Mb                                      |
|  Simplification time:          0.01 s                                       |
|                                                                             |
============================[ Search Statistics ]==============================
| Conflicts |          ORIGINAL         |          LEARNT          | Progress |
|           |    Vars  Clauses Literals |    Limit  Clauses Lit/Cl |          |
===============================================================================
===============================================================================
restarts              : 1
conflicts             : 0              (0 /sec)
decisions             : 1              (0.00 % random) (141 /sec)
propagations          : 27928          (3941849 /sec)
conflict literals     : 0              (-nan % deleted)
Memory used           : 11.00 MB
CPU time              : 0.007085 s

SATISFIABLE
WARNING: for repeatability, setting FPU to use double precision
============================[ Problem Statistics ]=============================
|                                                                             |
|  Number of variables:           100                                         |
|  Number of clauses:             430                                         |
|  Parse time:                   0.00 s                                       |
subsumption left:        429 (         0 subsumed,          0 deleted literals)elimination left:         99elimination left:         38elimination left:         39elimination left:         43|  Garbage collection:         565012 bytes =>            0 bytes             |
|  Eliminated clauses:           0.05 Mb                                      |
|  Simplification time:          2.17 s                                       |
|                                                                             |
============================[ Search Statistics ]==============================
| Conflicts |          ORIGINAL         |          LEARNT          | Progress |
|           |    Vars  Clauses Literals |    Limit  Clauses Lit/Cl |          |
===============================================================================
===============================================================================
restarts              : 1
conflicts             : 0              (0 /sec)
decisions             : 1              (0.00 % random) (0 /sec)
propagations          : 3669991        (1690691 /sec)
conflict literals     : 0              (-nan % deleted)
Memory used           : 12.00 MB
CPU time              : 2.1707 s

SATISFIABLE
WARNING: for repeatability, setting FPU to use double precision
============================[ Problem Statistics ]=============================
|                                                                             |
|  Number of variables:           100                                         |
|  Number of clauses:             430                                         |
|  Parse time:                   0.00 s                                       |
subsumption left:        429 (         0 subsumed,          0 deleted literals)elimination left:         99elimination left:         41elimination left:         40|  Garbage collection:         519052 bytes =>       145640 bytes             |
|  Eliminated clauses:           0.04 Mb                                      |
|  Simplification time:          1.67 s                                       |
|                                                                             |
============================[ Search Statistics ]==============================
| Conflicts |          ORIGINAL         |          LEARNT          | Progress |
|           |    Vars  Clauses Literals |    Limit  Clauses Lit/Cl |          |
===============================================================================
===============================================================================
restarts              : 1
conflicts             : 0              (0 /sec)
decisions             : 0              (-nan % random) (0 /sec)
propagations          : 2958631        (1774461 /sec)
conflict literals     : 0              (-nan % deleted)
Memory used           : 12.00 MB
CPU time              : 1.66734 s

INDETERMINATE
